c ind 831 830 829 828 827 826 825 824 823 822 821 820 819 818 817 816 815 814 813 812 811 810 809 808 807 806 805 804 803 802 801 800  0
c ind 33 32 31 30 29 28 27 26 25 24 23 22 21 20 19 18 17 16 15 14 13 12 11 10 9 8 7 6 5 4 3 2  0
c ind 925 924 923 922 921 920 919 918 917 916 915 914 913 912 911 910 909 908 907 906 905 904 903 902 901 900 899 898 897 896 895 894  0
c ind 96 95 94 93 92 91 90 89 88 87 86 85 84 83 82 81 80 79 78 77 76 75 74 73 72 71 70 69 68 67 66 65  0
c ind 606 605 604 603 602 601 600 599 598 597 596 595 594 593 592 591 590 589 588 587 586 585 584 583 582 581 580 579 578 577 576 575  0
c ind 737 736 735 734 733 732 731 730 729 728 727 726 725 724 723 722 721 720 719 718 717 716 715 714 713 712 711 710 709 708 707 706  0
c ind 497 496 495 494 493 492 491 490 489 488 487 486 485 484 483 482 481 480 479 478 477 476 475 474 473 472 471 470 469 468 467 466  0
p cnf 993 1247
1 0
-2 0
-3 0
-4 0
-5 0
-6 0
-7 0
-8 0
-9 0
-10 0
-11 0
-12 0
-13 0
-14 0
-15 0
-16 0
-17 0
-18 0
-19 0
-20 0
-21 0
-22 0
-23 0
-24 0
-25 0
-26 0
27 0
28 0
29 0
-30 0
-31 0
32 0
33 0
34 0
35 0
36 0
37 0
38 0
39 0
40 0
41 0
42 0
43 0
44 0
45 0
46 0
47 0
48 0
49 0
50 0
51 0
52 0
53 0
54 0
55 0
56 0
57 0
58 0
-59 0
-60 0
-61 0
-62 0
-63 0
-64 0
-65 0
-66 0
-67 0
-68 0
-69 0
-70 0
-71 0
-72 0
-73 0
-74 0
-75 0
-76 0
-77 0
-78 0
-79 0
-80 0
-81 0
-82 0
-83 0
-84 0
-85 0
-86 0
-87 0
-88 0
-89 0
90 0
91 0
92 0
-93 0
-94 0
95 0
96 0
97 0
98 0
99 0
100 0
101 0
102 0
103 0
104 0
105 0
106 0
107 0
108 0
109 0
110 0
111 0
112 0
113 0
114 0
115 0
116 0
117 0
118 0
119 0
120 0
121 0
122 0
-123 0
-124 0
-125 0
-126 0
-127 0
128 0
129 0
130 0
131 0
132 0
133 0
134 0
135 0
136 0
137 0
138 0
139 0
140 0
141 0
142 0
143 0
144 0
145 0
146 0
147 0
148 0
149 0
150 0
151 0
152 0
153 0
-154 0
-155 0
-156 0
-157 0
-158 0
159 0
160 0
161 0
162 0
163 0
164 0
165 0
166 0
167 0
168 0
169 0
170 0
171 0
172 0
173 0
174 0
175 0
176 0
177 0
178 0
179 0
180 0
181 0
182 0
183 0
184 0
185 0
-186 0
-187 0
-188 0
-189 0
-190 0
-191 0
-192 0
193 0
194 0
195 0
196 0
197 0
198 0
199 0
200 0
201 0
202 0
203 0
204 0
205 0
206 0
207 0
208 0
209 0
210 0
211 0
212 0
213 0
214 0
215 0
216 0
217 0
-218 0
-219 0
-220 0
-221 0
-222 0
-223 0
-224 0
-225 0
-226 0
227 0
228 0
229 0
230 0
231 0
232 0
233 0
234 0
235 0
236 0
237 0
238 0
239 0
240 0
241 0
242 0
243 0
244 0
245 0
246 0
247 0
248 0
249 0
250 0
-251 0
-252 0
-253 0
-254 0
-255 0
-256 0
-257 0
258 0
-259 0
-260 0
-261 0
-262 0
-263 0
264 0
265 0
-266 0
-267 0
-268 0
-269 0
270 0
271 0
-272 0
-273 0
-274 0
-275 0
-276 0
-277 0
-278 0
-279 0
-280 0
-281 0
-282 0
-283 0
-284 0
-285 0
-286 0
-287 0
-288 0
-289 0
-290 0
-291 0
-292 0
-293 0
-294 0
-295 0
-296 0
-297 0
-298 0
-299 0
-300 0
-301 0
-302 0
-303 0
-304 0
-305 0
306 0
-307 0
-308 0
-309 0
-310 0
-311 0
312 0
313 0
314 0
315 0
-316 0
-317 0
-318 0
-319 0
-320 0
-321 0
-322 0
-323 0
324 0
325 0
-326 0
-327 0
-328 0
-329 0
-330 0
-331 0
-332 0
-333 0
-334 0
-335 0
-336 0
-337 0
-338 0
-339 0
-340 0
-341 0
-342 0
-343 0
-344 0
-345 0
-346 0
-347 0
-348 0
-349 0
-350 0
-351 0
-352 0
-353 0
-354 0
-355 0
-356 0
-357 0
-358 0
-359 0
-360 0
-361 0
-362 0
-363 0
-364 0
-365 0
-366 0
-367 0
-368 0
-369 0
-370 0
-371 0
-372 0
-373 0
-374 0
-375 0
-376 0
-377 0
378 0
-379 0
-380 0
-381 0
-382 0
-383 0
-384 0
-385 0
-386 0
-387 0
-388 0
-389 0
-390 0
-391 0
-392 0
-393 0
-394 0
-395 0
-396 0
-397 0
-398 0
-399 0
-400 0
-401 0
-402 0
-403 0
-404 0
-405 0
406 0
407 0
408 0
409 0
410 0
411 0
412 0
413 0
414 0
415 0
416 0
417 0
418 0
419 0
420 0
421 0
422 0
423 0
424 0
425 0
426 0
427 0
428 0
429 0
-430 0
-431 0
-432 0
-433 0
-434 0
-435 0
-436 0
-437 0
-438 0
-439 0
-440 0
-441 0
-442 0
-443 0
-444 0
-445 0
-446 0
-447 0
-448 0
-449 0
-450 0
-451 0
-452 0
-453 0
-454 0
-455 0
-456 0
-457 0
-458 0
-459 0
-460 0
-461 0
-462 0
-463 0
-464 0
-465 0
-528 0
-559 0
-560 0
-561 0
-562 0
-563 0
-564 0
-565 0
-566 0
-567 0
-568 0
-569 0
-570 0
-571 0
-572 0
-573 0
-574 0
-575 0
-576 0
-577 0
-578 0
-579 0
-580 0
-581 0
-582 0
-583 0
-584 0
-585 0
-586 0
-587 0
-588 0
-589 0
-590 0
-591 0
-592 0
-593 0
-594 0
-595 0
-596 0
-597 0
-598 0
-599 0
-600 0
601 0
-602 0
-603 0
604 0
-605 0
606 0
607 0
608 0
609 0
610 0
611 0
612 0
613 0
614 0
615 0
616 0
617 0
618 0
619 0
620 0
621 0
622 0
623 0
624 0
625 0
626 0
627 0
628 0
629 0
630 0
631 0
-632 0
-633 0
-634 0
-635 0
-636 0
-637 0
638 0
639 0
640 0
641 0
642 0
643 0
644 0
645 0
646 0
647 0
648 0
649 0
650 0
651 0
652 0
653 0
654 0
655 0
656 0
657 0
658 0
659 0
660 0
661 0
662 0
663 0
664 0
665 0
666 0
667 0
668 0
-669 0
-670 0
-671 0
-672 0
-673 0
-674 0
-675 0
-676 0
-677 0
-678 0
-679 0
-680 0
-681 0
-688 0
-689 0
-690 0
-691 0
-692 0
-693 0
-694 0
-695 0
-696 0
-697 0
-698 0
-699 0
-700 0
-701 0
-702 0
-703 0
-704 0
-705 0
-706 0
-707 0
-708 0
-709 0
-710 0
-711 0
-712 0
-713 0
-714 0
-715 0
-716 0
-717 0
-718 0
-719 0
-720 0
-721 0
-722 0
-723 0
-724 0
-725 0
-726 0
-727 0
-728 0
-729 0
-730 0
-731 0
732 0
-733 0
-734 0
735 0
-736 0
737 0
738 0
739 0
740 0
741 0
742 0
743 0
744 0
745 0
746 0
747 0
748 0
749 0
750 0
751 0
752 0
753 0
754 0
755 0
756 0
757 0
758 0
759 0
760 0
761 0
762 0
763 0
764 0
765 0
766 0
767 0
768 0
769 0
770 0
771 0
772 0
773 0
774 0
775 0
776 0
777 0
778 0
779 0
780 0
781 0
782 0
783 0
784 0
785 0
786 0
787 0
788 0
789 0
790 0
791 0
792 0
793 0
-794 0
-795 0
-796 0
-797 0
-798 0
-799 0
-862 0
-893 0
-894 0
-895 0
-896 0
-897 0
-898 0
-899 0
-900 0
-901 0
-902 0
-903 0
-904 0
-905 0
-906 0
-907 0
-908 0
-909 0
-910 0
-911 0
-912 0
-913 0
-914 0
-915 0
-916 0
-917 0
-918 0
-919 0
-920 0
-921 0
-922 0
-923 0
-924 0
-925 0
926 0
927 0
928 0
929 0
930 0
931 0
932 0
933 0
934 0
935 0
936 0
937 0
938 0
939 0
940 0
941 0
942 0
943 0
944 0
945 0
946 0
947 0
948 0
949 0
950 0
951 0
952 0
953 0
954 0
955 0
956 0
-987 0
-988 0
-989 0
990 0
991 0
992 0
993 0
-466 -498 0
-466 -529 0
466 467 498 0
466 467 529 0
-467 -498 0
-467 -529 0
-468 -499 0
-468 -530 0
468 -498 499 0
468 -529 530 0
-469 -500 0
-469 -531 0
469 -499 500 0
469 -530 531 0
-470 -501 0
-470 -532 0
470 -500 501 0
470 -531 532 0
-471 -502 0
-471 -533 0
471 -501 502 0
471 -532 533 0
-472 -503 0
-472 -534 0
472 -502 503 0
472 -533 534 0
-473 -504 0
-473 -535 0
473 -503 504 0
473 -534 535 0
-474 -505 0
-474 -536 0
474 -504 505 0
474 -535 536 0
-475 -506 0
-475 -537 0
475 -505 506 0
475 -536 537 0
-476 -507 0
-476 -538 0
476 -506 507 0
476 -537 538 0
-477 -508 0
-477 -539 0
477 -507 508 0
477 -538 539 0
-478 -509 0
-478 -540 0
478 -508 509 0
478 -539 540 0
-479 -510 0
-479 -541 0
479 -509 510 0
479 -540 541 0
-480 -511 0
-480 -542 0
480 -510 511 0
480 -541 542 0
-481 -512 0
-481 -543 0
481 -511 512 0
481 -542 543 0
-482 -513 0
-482 -544 0
482 -512 513 0
482 -543 544 0
-483 -514 0
-483 -545 0
483 -513 514 0
483 -544 545 0
-484 -515 0
-484 -546 0
484 -514 515 0
484 -545 546 0
-485 -516 0
-485 -547 0
485 -515 516 0
485 -546 547 0
-486 -517 0
-486 -548 0
486 -516 517 0
486 -547 548 0
-487 -518 0
-487 -549 0
487 -517 518 0
487 -548 549 0
-488 -519 0
-488 -550 0
488 -518 519 0
488 -549 550 0
-489 -520 0
-489 -551 0
489 -519 520 0
489 -550 551 0
-490 -521 0
-490 -552 0
490 -520 521 0
490 -551 552 0
-491 -522 0
-491 -682 0
-491 -552 553 0
491 -553 0
491 -521 522 0
491 -552 682 0
-492 -554 0
-492 -683 0
-492 -522 523 0
492 -523 0
492 -553 554 0
492 -682 683 0
-493 -524 0
-493 -684 0
-493 -554 555 0
493 -555 0
493 -523 524 0
493 -683 684 0
-494 -525 0
-494 -685 0
-494 -555 556 0
494 -556 0
494 -524 525 0
494 -684 685 0
-495 -686 0
-495 -525 526 0
-495 -556 557 0
495 -526 0
495 -557 0
495 -685 686 0
-496 -527 0
-496 -558 0
-496 -687 0
496 -526 527 0
496 -557 558 0
496 -686 687 0
-497 -527 0
497 -558 0
497 -687 0
498 -499 0
499 -500 0
500 -501 0
501 -502 0
502 -503 0
503 -504 0
504 -505 0
505 -506 0
506 -507 0
507 -508 0
508 -509 0
509 -510 0
510 -511 0
511 -512 0
512 -513 0
513 -514 0
514 -515 0
515 -516 0
516 -517 0
517 -518 0
518 -519 0
519 -520 0
520 -521 0
521 -522 0
522 -523 0
523 -524 0
524 -525 0
525 -526 0
526 -527 0
529 -530 0
530 -531 0
531 -532 0
532 -533 0
533 -534 0
534 -535 0
535 -536 0
536 -537 0
537 -538 0
538 -539 0
539 -540 0
540 -541 0
541 -542 0
542 -543 0
543 -544 0
544 -545 0
545 -546 0
546 -547 0
547 -548 0
548 -549 0
549 -550 0
550 -551 0
551 -552 0
552 -553 0
552 -682 0
553 -554 0
554 -555 0
555 -556 0
556 -557 0
557 -558 0
682 -683 0
683 -684 0
684 -685 0
685 -686 0
686 -687 0
-800 -832 0
-800 -863 0
-800 -957 0
800 801 832 0
800 801 863 0
800 801 957 0
-801 -832 0
-801 -863 0
-801 -957 0
-802 -833 0
-802 -864 0
-802 -958 0
802 -832 833 0
802 -863 864 0
802 -957 958 0
-803 -834 0
-803 -865 0
-803 -959 0
803 -833 834 0
803 -864 865 0
803 -958 959 0
-804 -835 0
-804 -866 0
-804 -960 0
804 -834 835 0
804 -865 866 0
804 -959 960 0
-805 -836 0
-805 -867 0
-805 -961 0
805 -835 836 0
805 -866 867 0
805 -960 961 0
-806 -837 0
-806 -868 0
-806 -962 0
806 -836 837 0
806 -867 868 0
806 -961 962 0
-807 -838 0
-807 -869 0
-807 -963 0
807 -837 838 0
807 -868 869 0
807 -962 963 0
-808 -839 0
-808 -870 0
-808 -964 0
808 -838 839 0
808 -869 870 0
808 -963 964 0
-809 -840 0
-809 -871 0
-809 -965 0
809 -839 840 0
809 -870 871 0
809 -964 965 0
-810 -841 0
-810 -872 0
-810 -966 0
810 -840 841 0
810 -871 872 0
810 -965 966 0
-811 -842 0
-811 -873 0
-811 -967 0
811 -841 842 0
811 -872 873 0
811 -966 967 0
-812 -843 0
-812 -874 0
-812 -968 0
812 -842 843 0
812 -873 874 0
812 -967 968 0
-813 -844 0
-813 -875 0
-813 -969 0
813 -843 844 0
813 -874 875 0
813 -968 969 0
-814 -845 0
-814 -876 0
-814 -970 0
814 -844 845 0
814 -875 876 0
814 -969 970 0
-815 -846 0
-815 -877 0
-815 -971 0
815 -845 846 0
815 -876 877 0
815 -970 971 0
-816 -847 0
-816 -878 0
-816 -972 0
816 -846 847 0
816 -877 878 0
816 -971 972 0
-817 -848 0
-817 -879 0
-817 -973 0
817 -847 848 0
817 -878 879 0
817 -972 973 0
-818 -849 0
-818 -880 0
-818 -974 0
818 -848 849 0
818 -879 880 0
818 -973 974 0
-819 -850 0
-819 -881 0
-819 -975 0
819 -849 850 0
819 -880 881 0
819 -974 975 0
-820 -851 0
-820 -882 0
-820 -976 0
820 -850 851 0
820 -881 882 0
820 -975 976 0
-821 -852 0
-821 -883 0
-821 -977 0
821 -851 852 0
821 -882 883 0
821 -976 977 0
-822 -853 0
-822 -884 0
-822 -978 0
822 -852 853 0
822 -883 884 0
822 -977 978 0
-823 -854 0
-823 -885 0
-823 -979 0
823 -853 854 0
823 -884 885 0
823 -978 979 0
-824 -855 0
-824 -886 0
-824 -980 0
824 -854 855 0
824 -885 886 0
824 -979 980 0
-825 -856 0
-825 -887 0
-825 -980 981 0
825 -981 0
825 -855 856 0
825 -886 887 0
-826 -888 0
-826 -982 0
-826 -856 857 0
826 -857 0
826 -887 888 0
826 -981 982 0
-827 -858 0
-827 -889 0
-827 -982 983 0
827 -983 0
827 -857 858 0
827 -888 889 0
-828 -859 0
-828 -890 0
-828 -983 984 0
828 -984 0
828 -858 859 0
828 -889 890 0
-829 -891 0
-829 -859 860 0
-829 -984 985 0
829 -860 0
829 -985 0
829 -890 891 0
-830 -861 0
-830 -892 0
-830 -986 0
830 -860 861 0
830 -891 892 0
830 -985 986 0
-831 -861 0
831 -892 0
831 -986 0
832 -833 0
833 -834 0
834 -835 0
835 -836 0
836 -837 0
837 -838 0
838 -839 0
839 -840 0
840 -841 0
841 -842 0
842 -843 0
843 -844 0
844 -845 0
845 -846 0
846 -847 0
847 -848 0
848 -849 0
849 -850 0
850 -851 0
851 -852 0
852 -853 0
853 -854 0
854 -855 0
855 -856 0
856 -857 0
857 -858 0
858 -859 0
859 -860 0
860 -861 0
863 -864 0
864 -865 0
865 -866 0
866 -867 0
867 -868 0
868 -869 0
869 -870 0
870 -871 0
871 -872 0
872 -873 0
873 -874 0
874 -875 0
875 -876 0
876 -877 0
877 -878 0
878 -879 0
879 -880 0
880 -881 0
881 -882 0
882 -883 0
883 -884 0
884 -885 0
885 -886 0
886 -887 0
887 -888 0
888 -889 0
889 -890 0
890 -891 0
891 -892 0
957 -958 0
958 -959 0
959 -960 0
960 -961 0
961 -962 0
962 -963 0
963 -964 0
964 -965 0
965 -966 0
966 -967 0
967 -968 0
968 -969 0
969 -970 0
970 -971 0
971 -972 0
972 -973 0
973 -974 0
974 -975 0
975 -976 0
976 -977 0
977 -978 0
978 -979 0
979 -980 0
980 -981 0
981 -982 0
982 -983 0
983 -984 0
984 -985 0
985 -986 0
